
******************************************************************************
This program contains Ipopt, a library for large-scale nonlinear optimization.
 Ipopt is released as open source code under the Eclipse Public License (EPL).
         For more information visit http://projects.coin-or.org/Ipopt

This version of Ipopt was compiled from source code available at
    https://github.com/IDAES/Ipopt as part of the Institute for the Design of
    Advanced Energy Systems Process Systems Engineering Framework (IDAES PSE
    Framework) Copyright (c) 2018-2019. See https://github.com/IDAES/idaes-pse.

This version of Ipopt was compiled using HSL, a collection of Fortran codes
    for large-scale scientific computation.  All technical papers, sales and
    publicity material resulting from use of the HSL codes within IPOPT must
    contain the following acknowledgement:
        HSL, a collection of Fortran codes for large-scale scientific
        computation. See http://www.hsl.rl.ac.uk.
******************************************************************************

This is Ipopt version 3.13.2, running with linear solver ma27.

Number of nonzeros in equality constraint Jacobian...:     1840
Number of nonzeros in inequality constraint Jacobian.:        0
Number of nonzeros in Lagrangian Hessian.............:     3296

Total number of variables............................:      640
                     variables with only lower bounds:      128
                variables with lower and upper bounds:      448
                     variables with only upper bounds:        0
Total number of equality constraints.................:      632
Total number of inequality constraints...............:        0
        inequality constraints with only lower bounds:        0
   inequality constraints with lower and upper bounds:        0
        inequality constraints with only upper bounds:        0

iter    objective    inf_pr   inf_du lg(mu)  ||d||  lg(rg) alpha_du alpha_pr  ls
   0  0.0000000e+00 1.07e+00 1.80e-14  -1.0 0.00e+00    -  0.00e+00 0.00e+00   0
   1  2.4028356e+01 1.02e+00 2.43e+05  -1.0 1.69e+06    -  1.38e-01 3.31e-02h  4
   2  6.6546157e+01 9.75e-01 3.48e+05  -1.0 8.18e+05    -  1.53e-01 3.84e-02h  4
   3  3.3902420e+02 8.92e-01 8.56e+05  -1.0 2.14e+06    -  1.42e-01 7.17e-02h  3
   4  3.9756624e+02 8.75e-01 8.63e+05  -1.0 1.39e+06    -  1.87e-01 2.22e-02h  5
   5  4.5650337e+02 8.70e-01 8.61e+05  -1.0 1.11e+06    -  1.98e-01 2.03e-02h  5
   6  5.1228205e+02 8.67e-01 8.52e+05  -1.0 8.72e+05    -  2.10e-01 1.86e-02h  5
   7  5.6856898e+02 8.63e-01 8.39e+05  -1.0 1.08e+06    -  2.03e-01 1.69e-02h  5
   8  6.3335742e+02 8.60e-01 8.23e+05  -1.0 1.40e+06    -  2.53e-01 1.54e-02h  5
   9  7.4671635e+02 8.58e-01 8.11e+05  -1.0 7.80e+06    -  5.06e-02 9.40e-03h  5
iter    objective    inf_pr   inf_du lg(mu)  ||d||  lg(rg) alpha_du alpha_pr  ls
  10  8.0949559e+02 8.66e-01 1.19e+07  -1.0 5.54e+05  -4.0 3.54e-01 5.56e-02h  3
  11  1.0242550e+03 8.54e-01 3.52e+07  -1.0 4.80e+05  -4.5 4.83e-01 1.72e-01w  1
  12  1.0250331e+03 8.53e-01 3.51e+07  -1.0 3.48e+05  -4.1 4.43e-01 1.58e-03w  1
  13  1.0344487e+03 8.51e-01 3.51e+07  -1.0 1.92e+06  -3.6 5.88e-02 2.40e-03w  1
  14  1.9028432e+03 6.77e-01 2.45e+09  -1.0 2.80e+06  -4.1 1.01e-01 9.33e-02h  1
  15  1.8949340e+03 6.76e-01 2.44e+09  -1.0 5.78e+06  -3.7 3.66e-02 1.85e-03f  1
  16  1.8950761e+03 6.76e-01 2.44e+09  -1.0 2.01e+06  -3.3 4.54e-04 2.15e-05h  1
  17  1.8959581e+03 6.76e-01 2.44e+09  -1.0 4.39e+06  -2.8 6.14e-07 6.38e-05h  1
  18  2.5038246e+03 6.59e-01 1.90e+09  -1.0 1.04e+06  -3.3 5.27e-05 1.41e-01H  1
  19  2.7039948e+03 6.41e-01 2.89e+09  -1.0 1.80e+06  -2.9 3.18e-01 2.71e-02h  3
iter    objective    inf_pr   inf_du lg(mu)  ||d||  lg(rg) alpha_du alpha_pr  ls
  20  2.7922335e+03 6.29e-01 2.83e+09  -1.0 7.63e+05  -3.4 4.43e-01 1.87e-02h  5
  21  2.8224173e+03 6.26e-01 2.82e+09  -1.0 1.20e+06  -3.8 3.24e-01 4.97e-03h  7
  22  2.8381546e+03 6.22e-01 2.80e+09  -1.0 3.63e+06  -4.3 2.73e-01 6.04e-03h  5
  23  2.8488291e+03 6.21e-01 2.80e+09  -1.0 1.46e+06  -3.9 5.75e-01 1.56e-03h  8
  24  3.6031013e+03 5.52e-01 1.67e+11  -1.0 1.06e+06  -2.6 3.66e-02 1.10e-01H  1
  25  6.8484079e+03 3.66e-01 6.63e+10  -1.0 1.13e+06  -1.2 4.21e-01 3.37e-01h  2
  26  7.2008555e+03 3.31e-01 5.65e+10  -1.0 7.06e+05  -0.8 4.88e-01 9.64e-02h  1
  27  9.3365196e+03 2.28e-01 2.58e+11  -1.0 5.02e+05  -0.4 4.00e-01 4.73e-01h  2
  28  9.4063036e+03 2.21e-01 2.50e+11  -1.0 4.51e+05   0.1 7.68e-01 3.05e-02h  4
MA27BD returned iflag=-4 and requires more memory.
 Increase liw from 35915 to 71830 and la from 38400 to 77006 and factorize again.
  29  9.9351076e+03 4.24e-01 1.35e+12  -1.0 3.45e+05   0.5 6.85e-01 3.23e-01H  1
iter    objective    inf_pr   inf_du lg(mu)  ||d||  lg(rg) alpha_du alpha_pr  ls
  30  9.9914154e+03 4.11e-01 1.31e+12  -1.0 3.13e+05   0.0 9.42e-01 3.16e-02h  5
  31  1.1015355e+04 2.37e-01 6.90e+11  -1.0 1.55e+05   0.4 8.89e-01 4.95e-01h  2
  32  1.1156341e+04 2.21e-01 5.36e+11  -1.0 4.24e+05  -0.0 1.33e-01 9.04e-02h  4
  33  1.2138702e+04 5.00e-02 4.36e+11  -1.0 5.05e+04   0.4 9.91e-01 9.90e-01h  1
  34  1.2166647e+04 2.59e-03 1.24e+10  -1.0 6.39e+03  -0.1 9.69e-01 9.90e-01h  1
  35  1.2166882e+04 4.23e-05 1.74e+08  -1.0 9.54e+01  -0.6 9.90e-01 9.90e-01h  1
  36  1.2166885e+04 4.28e-07 1.75e+06  -1.0 1.12e+00  -1.1 9.91e-01 9.90e-01h  1
  37  1.2166885e+04 4.14e-07 2.66e+10  -1.0 2.06e-01  -1.5 9.99e-01 3.09e-02f  6
  38  1.2166892e+04 3.63e-07 4.82e+10  -1.0 5.41e+00  -2.0 1.00e+00 1.24e-01f  4
  39  1.2166877e+04 3.74e-09 8.05e+08  -1.0 1.85e+00  -2.5 1.00e+00 9.90e-01h  1
iter    objective    inf_pr   inf_du lg(mu)  ||d||  lg(rg) alpha_du alpha_pr  ls
  40  1.2166860e+04 5.51e-11 3.24e+10  -1.0 5.18e+00  -3.0 1.00e+00 9.90e-01H  1
In iteration 40, 32 Slacks too small, adjusting variable bounds
  41  1.2166683e+04 7.45e-09 3.24e+12  -1.0 1.72e+01  -3.4 1.00e+00 9.90e-01h  1
  42  1.2166119e+04 5.88e-08 1.24e-01  -1.0 5.20e+01  -3.9 1.00e+00 1.00e+00f  1
  43  1.2164293e+04 3.86e-07 2.02e+09  -8.6 1.58e+02  -4.4 9.99e-01 1.00e+00f  1
  44  1.2159421e+04 3.64e-06 2.45e+06  -8.6 4.70e+02  -4.9 9.99e-01 9.32e-01f  1
  45  1.2143849e+04 3.77e-05 9.37e-01  -8.6 1.41e+03  -5.3 1.00e+00 1.00e+00f  1
  46  1.2097899e+04 3.39e-04 6.73e+00  -8.6 4.19e+03  -5.8 1.00e+00 1.00e+00f  1
  47  1.0777570e+04 2.06e+00 2.45e+04  -8.6 1.22e+06    -  1.20e-01 3.86e-01f  1
  48  7.7512243e+03 1.14e+00 1.78e+04  -8.6 6.61e+05    -  2.20e-01 1.00e+00f  1
  49  7.5129616e+03 2.40e+00 6.93e+04  -8.6 2.19e+05  -6.3 5.18e-01 9.69e-01f  1
iter    objective    inf_pr   inf_du lg(mu)  ||d||  lg(rg) alpha_du alpha_pr  ls
  50  7.4833941e+03 1.48e+00 1.15e+05  -8.6 6.21e+04  -5.9 1.69e-07 1.00e+00f  1
In iteration 50, 1 Slack too small, adjusting variable bound
  51  7.5199730e+03 1.39e+00 1.07e+05  -8.6 7.00e+04  -6.4 1.00e+00 6.44e-02h  1
  52  7.9512694e+03 7.78e-01 4.69e+04  -8.6 9.32e+04  -6.8 1.00e+00 5.00e-01h  2
  53  8.2628278e+03 1.08e-01 1.18e+04  -8.6 2.71e+04  -6.4 1.00e+00 1.00e+00h  1
  54  8.2849897e+03 4.85e-03 1.27e+03  -8.6 1.39e+04  -6.9 1.00e+00 1.00e+00h  1
  55  8.2568395e+03 4.28e-04 2.06e+02  -8.6 1.67e+04  -7.4 1.00e+00 1.00e+00f  1
  56  8.2188447e+03 1.47e-03 1.29e+01  -8.6 3.46e+04  -7.8 1.00e+00 1.00e+00f  1
  57  8.2050442e+03 2.04e-02 1.44e+02  -8.6 5.80e+04  -8.3 1.00e+00 5.00e-01f  2
  58  8.1643100e+03 1.65e-02 6.50e+01  -8.6 2.27e+04  -7.9 1.00e+00 1.00e+00f  1
  59  8.1345112e+03 6.20e-02 2.30e+02  -8.6 1.71e+05  -8.4 6.35e-01 2.50e-01f  3
iter    objective    inf_pr   inf_du lg(mu)  ||d||  lg(rg) alpha_du alpha_pr  ls
  60  8.1344613e+03 9.61e-01 1.58e+03  -8.6 1.87e+06    -  2.22e-01 6.40e-02f  3
  61  8.0430947e+03 3.06e-02 4.97e+02  -8.6 7.70e+04  -7.9 1.00e+00 1.00e+00f  1
  62  7.8966320e+03 6.06e-01 1.39e+03  -8.6 1.33e+05    -  1.00e+00 1.00e+00F  1
  63  7.9031025e+03 5.68e-01 1.22e+03  -8.6 7.39e+05    -  4.16e-01 6.29e-02h  4
  64  7.9224275e+03 7.52e-01 6.34e+02  -8.6 2.24e+05    -  1.00e+00 5.00e-01h  2
  65  7.8388323e+03 4.36e-01 1.35e+03  -8.6 1.23e+05  -8.4 1.00e+00 1.00e+00F  1
  66  7.8174831e+03 5.00e-01 1.22e+03  -8.6 5.86e+05    -  1.00e+00 2.50e-01f  3
  67  7.8249840e+03 5.93e-01 9.35e+02  -8.6 2.73e+05    -  8.20e-01 2.09e-01h  3
  68  7.8455554e+03 6.38e-01 7.75e+02  -8.6 1.44e+05    -  1.00e+00 2.50e-01h  3
  69  7.8029595e+03 7.13e-01 8.38e+02  -8.6 6.02e+05  -8.9 3.85e-01 7.52e-02f  3
iter    objective    inf_pr   inf_du lg(mu)  ||d||  lg(rg) alpha_du alpha_pr  ls
  70  7.8165585e+03 6.70e-01 7.93e+02  -8.6 1.94e+05    -  8.54e-01 6.25e-02h  5
  71  8.1311363e+03 6.04e-02 6.70e+02  -8.6 6.52e+04    -  1.00e+00 1.00e+00h  1
  72  8.0383182e+03 1.75e-01 1.15e+03  -8.6 7.49e+04    -  1.00e+00 1.00e+00f  1
  73  8.0084562e+03 4.93e-03 1.28e+02  -8.6 2.57e+04    -  1.00e+00 1.00e+00f  1
  74  8.0188026e+03 1.82e-03 3.06e+00  -8.6 9.03e+03    -  1.00e+00 1.00e+00h  1
  75  8.0189690e+03 5.26e-07 1.01e-02  -8.6 1.12e+02    -  1.00e+00 1.00e+00h  1
  76  8.0189697e+03 1.70e-12 3.59e-08  -8.6 5.03e-01    -  1.00e+00 1.00e+00h  1

Number of Iterations....: 76

                                   (scaled)                 (unscaled)
Objective...............:   8.0189697260319608e+03    8.0189697260319608e+03
Dual infeasibility......:   3.5949148976924385e-08    3.5949148976924385e-08
Constraint violation....:   1.7017498521454399e-12    1.7017498521454399e-12
Complementarity.........:   2.5066233785217388e-09    2.5066233785217388e-09
Overall NLP error.......:   7.3388199088251003e-10    3.5949148976924385e-08


Number of objective function evaluations             = 236
Number of objective gradient evaluations             = 77
Number of equality constraint evaluations            = 236
Number of inequality constraint evaluations          = 0
Number of equality constraint Jacobian evaluations   = 77
Number of inequality constraint Jacobian evaluations = 0
Number of Lagrangian Hessian evaluations             = 76
Total CPU secs in IPOPT (w/o function evaluations)   =      0.306
Total CPU secs in NLP function evaluations           =      4.038

EXIT: Optimal Solution Found.
